num_offers = 30;
num_halls = 10;
start=[16,46,3,92,18,61,42,86,28,12,37,5,45,85,13,35,21,45,40,25,72,25,14,1,19,26,5,22,40,18];
end=[26,92,94,95,91,91,91,90,62,20,75,59,76,97,25,69,41,78,65,44,98,68,68,84,54,29,88,64,53,100];
price=[209,945,7952,353,2727,2096,4677,483,1674,391,3696,5045,2201,1116,193,1372,911,2927,2392,1844,1859,2170,3399,4760,2315,317,6349,2837,675,6296];
requirement=[887,757,656,323,521,588,247,768,431,886,706,744,585,555,438,441,689,225,928,580,328,758,686,886,727,583,406,362,238,621];
capacity=[717,777,346,517,555,627,966,763,407,470];
